%nproc=48
# M062X/Def2SVP ADMP(MaxPoints=1000) SCRF Temperature=325

 JAQXEI

0 1
C           0.37580         4.92840        12.67170
H           0.75180         4.41330        11.92770
H          -0.43900         5.38490        12.37490
H           0.15920         4.32280        13.41160
C           1.90730         6.63150        12.11300
C           1.17540         7.57500        11.38250
C           1.80300         8.36150        10.41830
H           1.30320         8.99730         9.91870
C           3.16380         8.20880        10.19270
C           3.81700         9.04870         9.14380
C           4.60960        10.12000         9.56150
C           3.89860         7.28950        10.92450
H           4.83140         7.19630        10.76740
C           3.27510         6.50820        11.88470
C           0.37800         4.91830         0.75870
H           0.75880         4.39920         1.49870
H           0.15840         4.31520         0.01750
H          -0.43500         5.37150         1.06220
C           1.90910         6.62440         1.31870
C           3.27680         6.50290         1.54700
C           5.31930         5.44400         0.94270
H           5.74440         6.31540         0.80170
H           5.67130         4.79840         0.29540
H           5.50970         5.13170         1.85190
C           3.89980         7.28210         2.50850
H           4.83160         7.18330         2.66840
C           3.16680         8.20190         3.23910
C           3.81630         9.04560         4.28660
C           5.92060        11.88650         9.56150
C           5.67380        11.54680        10.93530
H           6.01860        11.99520        11.69940
C           4.85480        10.46270        10.93660
H           4.50920        10.01690        11.70070
C           3.57680         8.71270         7.81030
C           2.79830         7.59600         7.39000
H           2.36070         6.96900         7.95400
C           2.79830         7.59570         6.03770
H           2.35950         6.96930         5.47370
C           3.57980         8.71100         5.61870
C          -0.92150         8.64050        11.01450
H          -0.56270         9.53420        11.19580
H          -1.85240         8.59530        11.31800
H          -0.88320         8.46090        10.05300
C           5.31860         5.45170        12.49440
H           5.50950         5.14160        11.58390
H           5.66840         4.80200        13.14030
H           5.74590         6.32040        12.64080
C           1.17640         7.56690         2.04520
C          -0.91960         8.63440         2.40250
H          -0.88580         8.45700         3.36530
H          -1.84960         8.59090         2.09490
H          -0.55740         9.52780         2.22120
C           1.80590         8.35410         3.00810
H           1.30680         8.99370         3.50230
Cl          7.50620         9.18610         6.71860
Fe          5.74520        10.56950         6.71640
N           5.26540        11.00190         8.73430
N           4.05680         9.38990         6.71590
O           3.91090         5.57930        12.66630
O           1.32610         5.89270        13.11080
O          -0.14610         7.66540        11.71150
O           3.91260         5.56990         0.77080
O           1.32600         5.88470         0.31960
O          -0.14420         7.65900         1.71220
C          10.15590        17.07210         0.75740
H           9.78000        17.58720         1.50140
H          10.97070        16.61560         1.05420
H          10.37250        17.67770         0.01750
C           8.62440        15.36900         1.31600
C           9.35630        14.42550         2.04660
C           8.72870        13.63900         3.01080
H           9.22850        13.00320         3.51040
C           7.36790        13.79170         3.23640
C           6.71470        12.95180         4.28520
C           5.92210        11.88050         3.86760
C           6.63310        14.71100         2.50450
H           5.70030        14.80420         2.66160
C           7.25660        15.49240         1.54430
C          10.15370        17.08220        12.67030
H           9.77290        17.60130        11.93040
H          10.37330        17.68540        13.41160
H          10.96670        16.62900        12.36680
C           8.62260        15.37610        12.11030
C           7.25490        15.49760        11.88200
C           5.21240        16.55650        12.48630
H           4.78730        15.68510        12.62730
H           4.86040        17.20210        13.13360
H           5.02200        16.86880        11.57720
C           6.63190        14.71840        10.92050
H           5.70010        14.81720        10.76070
C           7.36490        13.79870        10.19000
C           6.71540        12.95490         9.14250
C           4.61110        10.11400         3.86760
C           4.85800        10.45380         2.49380
H           4.51310        10.00530         1.72970
C           5.67690        11.53790         2.49240
H           6.02250        11.98360         1.72830
C           6.95490        13.28780         5.61870
C           7.73340        14.40450         6.03900
H           8.17100        15.03150         5.47500
C           7.73340        14.40480         7.39140
H           8.17230        15.03120         7.95540
C           6.95190        13.28950         7.81030
C          11.45320        13.36000         2.41450
H          11.09440        12.46640         2.23330
H          12.38410        13.40520         2.11100
H          11.41490        13.53960         3.37610
C           5.21310        16.54880         0.93470
H           5.02220        16.85890         1.84520
H           4.86330        17.19850         0.28870
H           4.78580        15.68010         0.78830
C           9.35530        14.43360        11.38380
C          11.45130        13.36610        11.02660
H          11.41750        13.54350        10.06370
H          12.38130        13.40960        11.33410
H          11.08910        12.47270        11.20790
C           8.72580        13.64640        10.42100
H           9.22490        13.00680         9.92680
N           5.26630        10.99870         4.69480
N           6.47490        12.61060         6.71320
O           6.62080        16.42120         0.76280
O           9.20560        16.10780         0.31830
O          10.67780        14.33510         1.71760
O           6.61910        16.43060        12.65820
O           9.20570        16.11580        13.10940
O          10.67590        14.34150        11.71690
Cl          3.02550        12.81440         6.71050
Fe          4.78660        11.43100         6.71270


