%chk=/home/zzy/gw/chk/Li-ZADQAA-8-L.chk
%mem=5GB
%nproc=32
# M062X/Def2SVP opt freq

Li-ZADQAA-8-L

-1 1
O1 5.5325 6.7305 8.977
C1 6.0325 8.0351 9.2303
H1 5.4898 8.4761 10.0651
H2 7.0917 7.9764 9.4763
H3 5.8994 8.6533 8.3437



