%CPU=0-5
%Mem=3GB
%rwf=/mnt/d/hotpot/examples/readwrite.rwf
%NoSave%chk=/mnt/d/hotpot/examples/checkpoint.chk
# opt B3LYP Def2SVP SCRF pop(Always)

 C 9 H 14 O 3

0 1
O           1.01039         0.32228         0.53152
C           2.28162         0.20889         0.09689
O           2.60027        -0.77866        -0.54809
C           3.29585         1.29477         0.42367
C           4.69801         0.94117        -0.12127
C           2.79083         2.66240        -0.09288
C           3.42191         3.66962         0.85965
C           3.27977         3.00590         2.24873
C           3.39181         1.54522         1.90336
O           3.54525         0.66030         2.73325
C           1.91325         3.28072         2.90510
C           4.41151         3.47566         3.17935
H           4.66515         0.83582        -1.22686
H           5.05162        -0.01768         0.31596
H           5.44780         1.72021         0.12795
H           1.69361         2.74230         0.07175
H           2.97411         2.84651        -1.17330
H           3.02106         4.70409         0.79625
H           4.49794         3.71837         0.58251
H           1.07341         2.94503         2.26209
H           1.79150         4.36865         3.09498
H           1.83561         2.74395         3.87520
H           5.40607         3.25564         2.73422
H           4.35049         2.95425         4.15877
H           4.33749         4.57026         3.35564
H           0.00000         0.00000         0.00000


